// Miwin's dice (3 dice)
// Miwin's Dice were invented in 1975 by the physicist Michael Winkelmann.
// (from the Wikipedia page)
m = 3;
n = 6;
d = 
[
  [1,2,5,6,7,9], // die III
  [1,3,4,5,8,9], // die IV
  [2,3,4,6,7,8]  // die V
];
